$ 1 0.000005 10.20027730826997 46 5 50 5e-11
r 112 368 112 240 0 150
v 224 240 112 240 0 0 40 -60 0 0 0.5
r 224 368 224 240 0 100
r 224 240 336 240 0 150
v 336 368 336 240 0 0 40 30 0 0 0.5
r 112 368 224 368 0 250
r 224 368 336 368 0 250
r 112 432 336 432 0 125
w 112 432 112 368 0
w 336 432 336 368 0
x 157 211 186 214 4 24 E1
x 265 210 295 213 4 24 R2
x 70 311 100 314 4 24 R1
x 176 310 206 313 4 24 R3
x 349 335 378 338 4 24 E2
x 157 404 187 407 4 24 R4
x 269 404 299 407 4 24 R5
x 212 468 242 471 4 24 R6
x 142 518 318 521 6 24 20-Feb-2022,\sz3
o 4 64 7 4099 40 0.00009765625 0 1 0.0000762939453125 E2\sPower
o 1 64 7 4099 80 0.2 1 1 10 E1\sPower
38 4 F1 0 -60 60 -1 E2\sVoltage
